Gurobi Optimizer version 9.1.2 build v9.1.2rc0 (linux64)
Thread count: 36 physical cores, 72 logical processors, using up to 32 threads
Optimize a model with 12 rows, 57 columns and 590 nonzeros
Model fingerprint: 0xf32eec78
Model has 47 quadratic constraints
Coefficient statistics:
  Matrix range     [2e-05, 3e+00]
  QMatrix range    [1e+00, 1e+00]
  QLMatrix range   [1e+00, 1e+00]
  Objective range  [8e-03, 7e-01]
  Bounds range     [1e+00, 1e+00]
  RHS range        [1e+00, 1e+00]
Presolve removed 9 rows and 0 columns

Continuous model is non-convex -- solving as a MIP.

Presolve removed 9 rows and 0 columns
Presolve time: 0.00s
Presolved: 189 rows, 57 columns, 443 nonzeros
Presolved model has 47 bilinear constraint(s)
Variable types: 57 continuous, 0 integer (0 binary)

Root relaxation: objective -1.743721e+00, 44 iterations, 0.00 seconds

    Nodes    |    Current Node    |     Objective Bounds      |     Work
 Expl Unexpl |  Obj  Depth IntInf | Incumbent    BestBd   Gap | It/Node Time

     0     0   -1.74372    0   38          -   -1.74372      -     -    0s
H    0     0                       0.6147548   -1.74372   384%     -    0s
     0     0   -1.64739    0    1    0.61475   -1.64739   368%     -    0s
H    0     0                      -1.6450460   -1.64739  0.14%     -    0s
     0     0     cutoff    0        -1.64505   -1.64505  0.00%     -    0s

Cutting planes:
  RLT: 25
  BQP: 3

Explored 1 nodes (76 simplex iterations) in 0.01 seconds
Thread count was 32 (of 72 available processors)

Solution count 2: -1.64505 0.614755 
No other solutions better than -1.64505

Optimal solution found (tolerance 1.00e-04)
Best objective -1.645045978473e+00, best bound -1.645045978473e+00, gap 0.0000%

User-callback calls 78, time in user-callback 0.00 sec
Gurobi Optimizer version 9.1.2 build v9.1.2rc0 (linux64)
Thread count: 36 physical cores, 72 logical processors, using up to 32 threads
Optimize a model with 60 rows, 300 columns and 15500 nonzeros
Model fingerprint: 0xc3bef07b
Model has 250 quadratic constraints
Coefficient statistics:
  Matrix range     [1e-06, 4e+00]
  QMatrix range    [1e+00, 1e+00]
  QLMatrix range   [1e+00, 1e+00]
  Objective range  [3e-04, 9e-01]
  Bounds range     [1e+00, 1e+00]
  RHS range        [1e+00, 1e+00]
Presolve removed 11 rows and 0 columns

Continuous model is non-convex -- solving as a MIP.

Presolve removed 11 rows and 0 columns
Presolve time: 0.01s
Presolved: 1049 rows, 300 columns, 14160 nonzeros
Presolved model has 250 bilinear constraint(s)
Variable types: 300 continuous, 0 integer (0 binary)

Root relaxation: objective -2.244716e+01, 361 iterations, 0.02 seconds

    Nodes    |    Current Node    |     Objective Bounds      |     Work
 Expl Unexpl |  Obj  Depth IntInf | Incumbent    BestBd   Gap | It/Node Time

     0     0  -22.44716    0  199          -  -22.44716      -     -    0s
     0     0  -20.53970    0  196          -  -20.53970      -     -    0s
     0     0  -20.02527    0  189          -  -20.02527      -     -    0s
     0     0  -20.01088    0  172          -  -20.01088      -     -    0s
     0     0  -19.98412    0  137          -  -19.98412      -     -    0s
     0     0  -19.98400    0  137          -  -19.98400      -     -    0s
     0     0  -19.98356    0  127          -  -19.98356      -     -    0s
H    0     0                     -16.9318596  -19.98356  18.0%     -    0s
     0     2  -19.98356    0  127  -16.93186  -19.98356  18.0%     -    0s
* 1682  1394              66     -16.9330348  -18.86706  11.4%  79.4    2s
* 1799  1498              67     -16.9330649  -18.86706  11.4%  78.1    2s
* 1800  1498              67     -16.9330663  -18.86706  11.4%  78.1    2s
* 1814  1498              97     -16.9658394  -18.86706  11.2%  77.8    2s
* 2222  1878              50     -17.6631202  -18.86706  6.82%  74.5    2s
* 3220  1779              63     -17.6632385  -18.84833  6.71%  77.5    3s
* 3221  1779              63     -17.6632477  -18.84833  6.71%  77.5    3s
* 3222  1779              62     -17.6632568  -18.84833  6.71%  77.5    3s
* 3611  1857              57     -17.6637097  -18.82410  6.57%  78.8    3s
* 3612  1857              57     -17.6637453  -18.82410  6.57%  78.8    3s
* 3616  1857              57     -17.6637660  -18.82410  6.57%  78.7    3s
* 3617  1857              56     -17.6637946  -18.82410  6.57%  78.7    3s
* 3742  1857              70     -17.6834363  -18.82410  6.45%  79.4    3s
* 3743  1857              70     -17.6834391  -18.82410  6.45%  79.3    3s
* 3744  1857              69     -17.6834420  -18.82410  6.45%  79.3    3s
* 3745  1857              68     -17.6834452  -18.82410  6.45%  79.3    3s
* 4570  1907              61     -17.6841987  -18.78510  6.23%  81.9    4s
* 4572  1907              60     -17.6842378  -18.78510  6.23%  81.9    4s
* 4837  1909              74     -17.6996639  -18.78510  6.13%  81.2    4s
  5646  1771  -18.78510   21  214  -17.69966  -18.78510  6.13%  80.7    5s
* 8073  1460              73     -17.7687114  -18.78510  5.72%  76.4    6s
* 8211  1352              90     -17.7687563  -18.78510  5.72%  76.0    6s
* 8244  1265             128     -17.7945911  -18.78510  5.57%  75.9    6s
*10203  1059              75     -17.7948044  -18.78510  5.57%  73.1    7s
*10204  1059              75     -17.7948312  -18.78510  5.56%  73.1    7s
*10206  1059              75     -17.7948447  -18.78510  5.56%  73.1    7s
*10257  1153              66     -17.8305805  -18.78510  5.35%  73.0    7s
*10856  1233              84     -17.8308936  -18.78510  5.35%  71.8    7s
*10930  1233              85     -17.8440326  -18.78510  5.27%  71.5    7s
*13098  2027              96     -17.8740373  -18.46606  3.31%  68.4    8s
*13099  2027              96     -17.8740411  -18.46606  3.31%  68.4    8s
*13445  2076              70     -17.8744749  -18.43319  3.13%  67.4    8s
*13446  2076              70     -17.8744887  -18.43319  3.13%  67.4    8s
*13448  2076              70     -17.8745789  -18.43319  3.13%  67.4    8s
*13449  2076              70     -17.8746122  -18.43319  3.12%  67.4    8s
*13556  2076             100     -17.9207274  -18.41572  2.76%  67.1    8s
*14017  1985              80     -18.0127730  -18.41572  2.24%  66.0    8s
*14163  1985              76     -18.1483609  -18.41572  1.47%  65.8    8s
*15194  1299              66     -18.1483638  -18.25780  0.60%  64.0    9s
*15495  1109              56     -18.1485325  -18.25352  0.58%  63.5    9s
*15502  1109              60     -18.1485337  -18.25352  0.58%  63.4    9s
*15750  1109              57     -18.1516538  -18.23961  0.48%  62.7    9s
*16682   334              52     -18.1517152  -18.18186  0.17%  60.2    9s
*16687   334              54     -18.1517292  -18.18186  0.17%  60.1    9s
*16688   334              54     -18.1517292  -18.18186  0.17%  60.1    9s
*16708   334              54     -18.1517343  -18.18186  0.17%  60.1    9s
*16837   334              61     -18.1517344  -18.18186  0.17%  59.6    9s
*16841   334              61     -18.1517385  -18.18186  0.17%  59.6    9s
*16843   334              62     -18.1517419  -18.18186  0.17%  59.6    9s
*16844   334              62     -18.1517426  -18.18186  0.17%  59.6    9s
*17016   334              55     -18.1517745  -18.18186  0.17%  59.1    9s
*17453   152              56     -18.1518019  -18.18186  0.17%  57.8    9s
*17563   152              62     -18.1518393  -18.18186  0.17%  57.4    9s
*17565   152              63     -18.1518740  -18.18186  0.17%  57.4    9s
*17567   152              64     -18.1518741  -18.18186  0.17%  57.4    9s
*17568   152              64     -18.1518741  -18.18186  0.17%  57.4    9s
*17571   152              63     -18.1518743  -18.18186  0.17%  57.4    9s
*17572   152              63     -18.1518743  -18.18186  0.17%  57.4    9s
 17969   170     cutoff   65       -18.15187  -18.16851  0.09%  56.2   10s
*18459   170              61     -18.1518746  -18.15959  0.04%  54.9   10s
*18479   170              66     -18.1518747  -18.15959  0.04%  54.8   10s
*18490   170              68     -18.1518748  -18.15959  0.04%  54.8   10s
*18525   170              67     -18.1518754  -18.15959  0.04%  54.7   10s
*18535   170              68     -18.1518755  -18.15959  0.04%  54.7   10s

Explored 19439 nodes (1020076 simplex iterations) in 10.21 seconds
Thread count was 32 (of 72 available processors)

Solution count 10: -18.1519 -18.1519 -18.1519 ... -18.1518

Optimal solution found (tolerance 1.00e-04)
Best objective -1.815187548226e+01, best bound -1.815268676885e+01, gap 0.0045%

User-callback calls 40205, time in user-callback 0.01 sec



objective value: -18.15187548225679
objective bound: -18.152686768854803
x_opt: [0.0, 1.0, 1.0, 0.0, 0.0, 0.0, 1.0, 1.0, 0.0, 0.0, 0.2555867482298099, 0.4149332588774529, 0.0, 1.0, 1.0, 1.0, 0.0, 1.0, 0.0, 0.0, 0.0, 1.0, 1.0, 1.0, 0.0, 1.0, 1.0, 1.0, 0.0, 0.9391817590929217, 1.0, 0.809153607059757, 0.0, 0.21008984814793627, 1.0, 1.0, 1.0, 1.0, 0.3844328451451516, 1.0, 0.8711827726543148, 0.2209560054397611, 1.0, 0.0, 0.0, 0.7521988421157824, 0.11079523976064565, 0.08675182783796512, 0.0, 1.0]
GUROBI solution time: 10.210399866104126

